p edge 25 64
e 1 2
e 1 3
e 1 5
e 1 6
e 1 8
e 1 9
e 1 11
e 1 12
e 1 13
e 1 16
e 1 17
e 1 23
e 2 3
e 2 4
e 2 5
e 2 7
e 2 8
e 2 12
e 2 14
e 2 18
e 2 21
e 3 4
e 3 6
e 3 7
e 3 8
e 3 13
e 3 16
e 3 20
e 3 21
e 4 5
e 4 7
e 4 10
e 4 15
e 4 17
e 4 18
e 4 19
e 4 20
e 5 7
e 5 18
e 6 11
e 6 17
e 7 15
e 7 18
e 7 21
e 8 12
e 8 16
e 9 11
e 9 15
e 10 24
e 11 15
e 11 17
e 11 25
e 12 14
e 12 15
e 12 18
e 13 23
e 14 15
e 14 16
e 14 18
e 15 18
e 15 19
e 15 25
e 16 22
e 21 25
